5 5
2 42 1 37 0 26 3 92 4 12
3 84 4 49 0 14 2 46 1 35
4 29 3 12 0 82 2 44 1 66
0 2 1 59 4 17 2 10 3 18
1 22 3 83 0 58 4 53 2 1
-1
0 4 5
0 2 3 4 5
0 1 3 5
0 2 3 4 5
0 1 3 5
-2
247 313
180 163 260 297
30 130 291
74 113 115 150
31 170 294

331 7
15 12 2 7 22
16 1 20 14 9
0 18 13 8 24
11 5 21 3 19
10 17 6 23 4
